ITEM: TIMESTEP
0
ITEM: NUMBER OF ATOMS
64
ITEM: BOX BOUNDS pp pp pp
0.0000000000000000e+00 1.0000000000000000e+01
0.0000000000000000e+00 1.0000000000000000e+01
0.0000000000000000e+00 1.0000000000000000e+01
ITEM: ATOMS id type x y z
1 1 0.000 0.000 0.000
2 1 2.500 0.000 0.000
3 1 5.000 0.000 0.000
4 1 7.500 0.000 0.000
5 1 0.000 2.500 0.000
6 1 2.500 2.500 0.000
7 1 5.000 2.500 0.000
8 1 7.500 2.500 0.000
9 1 0.000 5.000 0.000
10 1 2.500 5.000 0.000
11 1 5.000 5.000 0.000
12 1 7.500 5.000 0.000
13 1 0.000 7.500 0.000
14 1 2.500 7.500 0.000
15 1 5.000 7.500 0.000
16 1 7.500 7.500 0.000
17 1 0.000 0.000 2.500
18 1 2.500 0.000 2.500
19 1 5.000 0.000 2.500
20 1 7.500 0.000 2.500
21 1 0.000 2.500 2.500
22 1 2.500 2.500 2.500
23 1 5.000 2.500 2.500
24 1 7.500 2.500 2.500
25 1 0.000 5.000 2.500
26 1 2.500 5.000 2.500
27 1 5.000 5.000 2.500
28 1 7.500 5.000 2.500
29 1 0.000 7.500 2.500
30 1 2.500 7.500 2.500
31 1 5.000 7.500 2.500
32 1 7.500 7.500 2.500
33 1 0.000 0.000 5.000
34 1 2.500 0.000 5.000
35 1 5.000 0.000 5.000
36 1 7.500 0.000 5.000
37 1 0.000 2.500 5.000
38 1 2.500 2.500 5.000
39 1 5.000 2.500 5.000
40 1 7.500 2.500 5.000
41 1 0.000 5.000 5.000
42 1 2.500 5.000 5.000
43 1 5.000 5.000 5.000
44 1 7.500 5.000 5.000
45 1 0.000 7.500 5.000
46 1 2.500 7.500 5.000
47 1 5.000 7.500 5.000
48 1 7.500 7.500 5.000
49 1 0.000 0.000 7.500
50 1 2.500 0.000 7.500
51 1 5.000 0.000 7.500
52 1 7.500 0.000 7.500
53 1 0.000 2.500 7.500
54 1 2.500 2.500 7.500
55 1 5.000 2.500 7.500
56 1 7.500 2.500 7.500
57 1 0.000 5.000 7.500
58 1 2.500 5.000 7.500
59 1 5.000 5.000 7.500
60 1 7.500 5.000 7.500
61 1 0.000 7.500 7.500
62 1 2.500 7.500 7.500
63 1 5.000 7.500 7.500
64 1 7.500 7.500 7.500
